analyze/results_flowersnark/final_miplib_symretope_if_extended_generating_set_cpx_v802__settings_final_nopeek_norelabel_extend_norestarts__2__cov1075.mps.gz.sol
solution status: optimal solution found
objective value:                                   20
x118                                                1 	(obj:1)
x0                                                  1 	(obj:1)
x7                                                  1 	(obj:1)
x17                                                 1 	(obj:1)
x25                                                 1 	(obj:1)
x30                                                 1 	(obj:1)
x43                                                 1 	(obj:1)
x48                                                 1 	(obj:1)
x51                                                 1 	(obj:1)
x59                                                 1 	(obj:1)
x63                                                 1 	(obj:1)
x67                                                 1 	(obj:1)
x70                                                 1 	(obj:1)
x75                                                 1 	(obj:1)
x79                                                 1 	(obj:1)
x88                                                 1 	(obj:1)
x96                                                 1 	(obj:1)
x103                                                1 	(obj:1)
x105                                                1 	(obj:1)
x116                                                1 	(obj:1)
