analyze/results_flowersnark/final_miplib_symretope_if_extended_generating_set_cpx_v802__settings_final_nopeek_norelabel_extend_norestarts__2__cov1075.mps.gz.out
FILENAME:   /home/mcs001/s132664/testsets/IP/miplib2010/cov1075.mps.gz
SETTINGS:   settings_final_nopeek_norelabel_extend_norestarts
TIMELIMIT:  7200
OUTPUTNAME: final_miplib_symretope_if_extended_generating_set_cpx_v802__settings_final_nopeek_norelabel_extend_norestarts__2__
BINNAME:    bin/sbcs.linux.x86_64.gnu.opt.cpx
BASENAME:   cov1075.mps.gz
SEED:       2
@01 /home/mcs001/s132664/testsets/IP/miplib2010/cov1075.mps.gz ===========
@02 cov1075.mps.gz
@03 1686656577
SCIP version 8.0.2 [precision: 8 byte] [memory: block] [mode: optimized] [LP solver: CPLEX 20.1.0.0] [GitHash: 5f0473c]
Copyright (C) 2002-2022 Konrad-Zuse-Zentrum fuer Informationstechnik Berlin (ZIB)

Symretope propagation methods - (c) Jasper van Doornmalen, Christopher Hojny.
[GitHash: 2fd0484]

reading parameter file <../settings/settings_final_nopeek_norelabel_extend_norestarts.set> ...

Changed settings:
limits/time = 7200
limits/restarts = 0
misc/usesymmetry = 1
randomization/randomseedshift = 2
constraints/orbisack/sepafreq = -1
constraints/symresack/sepafreq = -1
propagating/symmetry/addsymresacks = TRUE
propagating/symmetry/detectsubgroups = FALSE
propagating/symmetry/relabelsymretopes = 0
propagating/symmetry/extendgenerators = TRUE
propagating/symmetry/ofsymcomptiming = 0
constraints/symretope/sepafreq = -1
constraints/symretope/peek = FALSE


solving problem ...

original problem has 120 variables (120 bin, 0 int, 0 impl, 0 cont) and 637 constraints
feasible solution found by trivial heuristic after 0.0 seconds, objective value 1.200000e+02
presolving:
(round 1, exhaustive) 0 del vars, 0 del conss, 0 add conss, 0 chg bounds, 0 chg sides, 0 chg coeffs, 637 upgd conss, 0 impls, 0 clqs
   (0.0s) probing: 51/120 (42.5%) - 0 fixings, 0 aggregations, 0 implications, 0 bound changes
   (0.0s) probing aborted: 50/50 successive totally useless probings
   (0.1s) symmetry computation started: requiring (bin +, int +, cont +), (fixed: bin -, int -, cont -)
   (0.1s) symmetry computation finished: 9 generators found (max: 1500, log10 of symmetry group size: 6.6)
(round 2, exhaustive) 0 del vars, 0 del conss, 45 add conss, 0 chg bounds, 0 chg sides, 0 chg coeffs, 637 upgd conss, 0 impls, 0 clqs
presolving (3 rounds: 3 fast, 3 medium, 3 exhaustive):
 0 deleted vars, 0 deleted constraints, 45 added constraints, 0 tightened bounds, 0 added holes, 0 changed sides, 0 changed coefficients
 0 implications, 0 cliques
presolved problem has 120 variables (120 bin, 0 int, 0 impl, 0 cont) and 682 constraints
    385 constraints of type <knapsack>
     30 constraints of type <orbisack>
     15 constraints of type <symretope>
    252 constraints of type <logicor>
transformed objective value is always integral (scale: 1)
Presolving Time: 0.07
transformed 1/1 original solutions to the transformed problem space

 time | node  | left  |LP iter|LP it/n|mem/heur|mdpt |vars |cons |rows |cuts |sepa|confs|strbr|  dualbound   | primalbound  |  gap   | compl. 
i 0.1s|     1 |     0 |     0 |     - |  oneopt|   0 | 120 | 682 | 779 |   0 |  0 |   0 |   0 | 0.000000e+00 | 3.600000e+01 |    Inf | unknown
  0.1s|     1 |     0 |  1222 |     - |    27M |   0 | 120 | 682 | 779 |   0 |  0 |   0 |   0 | 1.714286e+01 | 3.600000e+01 | 110.00%| unknown
r 0.2s|     1 |     0 |  1222 |     - |randroun|   0 | 120 | 682 | 779 |   0 |  0 |   0 |   0 | 1.714286e+01 | 3.100000e+01 |  80.83%| unknown
i 0.2s|     1 |     0 |  1222 |     - |  oneopt|   0 | 120 | 682 | 779 |   0 |  0 |   0 |   0 | 1.714286e+01 | 2.700000e+01 |  57.50%| unknown
  0.2s|     1 |     0 |  1301 |     - |    29M |   0 | 120 | 682 | 780 |   1 |  1 |   0 |   0 | 1.716957e+01 | 2.700000e+01 |  57.25%| unknown
  0.2s|     1 |     0 |  1340 |     - |    30M |   0 | 120 | 683 | 781 |   2 |  2 |   1 |   0 | 1.719045e+01 | 2.700000e+01 |  57.06%| unknown
  0.3s|     1 |     0 |  1386 |     - |    30M |   0 | 120 | 683 | 782 |   3 |  3 |   1 |   0 | 1.720092e+01 | 2.700000e+01 |  56.97%| unknown
  0.3s|     1 |     0 |  1410 |     - |    32M |   0 | 120 | 684 | 783 |   4 |  4 |   2 |   0 | 1.720560e+01 | 2.700000e+01 |  56.93%| unknown
  0.4s|     1 |     0 |  1455 |     - |    33M |   0 | 120 | 684 | 784 |   5 |  5 |   2 |   0 | 1.721346e+01 | 2.700000e+01 |  56.85%| unknown
  0.4s|     1 |     0 |  1528 |     - |    34M |   0 | 120 | 685 | 785 |   6 |  6 |   3 |   0 | 1.733333e+01 | 2.700000e+01 |  55.77%| unknown
  0.9s|     1 |     2 |  2111 |     - |    34M |   0 | 120 | 690 | 785 |   6 |  8 |   8 |  21 | 1.740091e+01 | 2.700000e+01 |  55.16%| unknown
* 1.6s|     6 |     2 |  2911 | 276.6 |    LP  |   3 | 120 | 696 | 642 |   6 |  5 |  14 | 126 | 1.740091e+01 | 2.600000e+01 |  49.42%|   9.17%
o 4.0s|    41 |    29 |  5606 | 102.0 |objpscos|  19 | 120 | 708 | 643 |   7 |  1 |  34 | 404 | 1.760000e+01 | 2.400000e+01 |  36.36%|  54.31%
* 4.3s|    48 |    27 |  6705 | 110.1 |strongbr|  19 | 120 | 719 | 643 |   7 |  2 |  45 | 437 | 1.760000e+01 | 2.100000e+01 |  19.32%|  57.47%
  6.2s|   100 |    61 | 10748 |  93.1 |    41M |  19 | 120 | 732 | 651 |  35 |  7 |  60 | 607 | 1.776425e+01 | 2.100000e+01 |  18.21%|  58.29%
 time | node  | left  |LP iter|LP it/n|mem/heur|mdpt |vars |cons |rows |cuts |sepa|confs|strbr|  dualbound   | primalbound  |  gap   | compl. 
* 6.4s|   122 |    38 | 11740 |  84.4 |    LP  |  21 | 120 | 732 | 644 |  37 |  2 |  60 | 609 | 1.776425e+01 | 2.000000e+01 |  12.59%|  67.14%
  7.1s|   200 |    66 | 16096 |  73.2 |    45M |  21 | 120 | 733 | 651 |  70 |  6 |  64 | 612 | 1.779416e+01 | 2.000000e+01 |  12.40%|  68.54%
  7.8s|   300 |    96 | 21301 |  66.1 |    47M |  21 | 120 | 738 | 655 | 115 |  0 |  71 | 613 | 1.792447e+01 | 2.000000e+01 |  11.58%|  70.00%
  9.3s|   400 |   122 | 26817 |  63.4 |    47M |  23 | 120 | 747 | 653 | 169 |  8 |  80 | 619 | 1.792447e+01 | 2.000000e+01 |  11.58%|  70.40%
 10.4s|   500 |   146 | 32405 |  61.9 |    48M |  23 | 120 | 752 | 652 | 228 |  0 |  88 | 636 | 1.802964e+01 | 2.000000e+01 |  10.93%|  71.64%
 11.8s|   600 |   196 | 39852 |  64.0 |    48M |  23 | 120 | 779 | 652 | 314 |  6 | 123 | 656 | 1.811038e+01 | 2.000000e+01 |  10.43%|  71.99%
 13.2s|   700 |   262 | 48221 |  66.8 |    48M |  23 | 120 | 805 | 651 | 356 |  1 | 165 | 676 | 1.813226e+01 | 2.000000e+01 |  10.30%|  72.38%
 14.6s|   800 |   298 | 55941 |  68.1 |    49M |  23 | 120 | 822 | 658 | 463 |  1 | 188 | 688 | 1.815853e+01 | 2.000000e+01 |  10.14%|  72.97%
 16.0s|   900 |   346 | 63355 |  68.8 |    49M |  25 | 120 | 841 | 652 | 518 |  1 | 224 | 689 | 1.819521e+01 | 2.000000e+01 |   9.92%|  73.11%
 17.0s|  1000 |   400 | 69629 |  68.2 |    50M |  25 | 120 | 857 | 655 | 564 |  1 | 261 | 692 | 1.825877e+01 | 2.000000e+01 |   9.54%|  73.70%
 18.1s|  1100 |   450 | 77069 |  68.7 |    50M |  25 | 120 | 881 | 659 | 609 |  1 | 308 | 693 | 1.827904e+01 | 2.000000e+01 |   9.41%|  74.04%
 19.0s|  1200 |   490 | 82454 |  67.5 |    51M |  25 | 120 | 900 | 655 | 658 |  2 | 336 | 696 | 1.830708e+01 | 2.000000e+01 |   9.25%|  74.45%
 20.2s|  1300 |   512 | 87943 |  66.5 |    51M |  26 | 120 | 909 | 655 | 698 |  1 | 358 | 696 | 1.834759e+01 | 2.000000e+01 |   9.01%|  74.64%
 21.0s|  1400 |   536 | 93273 |  65.6 |    51M |  26 | 120 | 917 | 655 | 739 |  0 | 381 | 696 | 1.836561e+01 | 2.000000e+01 |   8.90%|  74.84%
 21.8s|  1500 |   550 | 97845 |  64.3 |    52M |  26 | 120 | 919 | 653 | 764 |  0 | 391 | 696 | 1.837689e+01 | 2.000000e+01 |   8.83%|  75.77%
 time | node  | left  |LP iter|LP it/n|mem/heur|mdpt |vars |cons |rows |cuts |sepa|confs|strbr|  dualbound   | primalbound  |  gap   | compl. 
 22.6s|  1600 |   560 |103282 |  63.6 |    52M |  26 | 120 | 930 | 650 | 802 |  2 | 410 | 697 | 1.841227e+01 | 2.000000e+01 |   8.62%|  77.49%
 23.4s|  1700 |   552 |108182 |  62.8 |    52M |  26 | 120 | 935 | 645 | 833 |  1 | 420 | 698 | 1.843526e+01 | 2.000000e+01 |   8.49%|  77.78%
 24.1s|  1800 |   562 |113133 |  62.0 |    52M |  26 | 120 | 942 | 649 | 838 |  1 | 435 | 698 | 1.844532e+01 | 2.000000e+01 |   8.43%|  78.35%
 24.8s|  1900 |   554 |117461 |  61.0 |    52M |  26 | 120 | 945 | 661 | 858 |  1 | 444 | 699 | 1.847262e+01 | 2.000000e+01 |   8.27%|  79.15%
 25.7s|  2000 |   554 |121931 |  60.2 |    52M |  26 | 120 | 948 | 658 | 868 |  1 | 449 | 700 | 1.847939e+01 | 2.000000e+01 |   8.23%|  79.38%
 26.4s|  2100 |   554 |126932 |  59.7 |    52M |  26 | 120 | 952 | 652 | 875 |  0 | 455 | 700 | 1.851920e+01 | 2.000000e+01 |   8.00%|  79.79%
 27.0s|  2200 |   536 |131371 |  59.0 |    52M |  26 | 120 | 960 | 651 | 876 |  1 | 466 | 701 | 1.853932e+01 | 2.000000e+01 |   7.88%|  80.02%
 27.6s|  2300 |   514 |134824 |  58.0 |    52M |  26 | 120 | 968 | 653 | 891 |  1 | 476 | 701 | 1.855102e+01 | 2.000000e+01 |   7.81%|  80.28%
 28.3s|  2400 |   500 |138346 |  57.0 |    52M |  26 | 120 | 974 | 646 | 915 |  1 | 485 | 702 | 1.856323e+01 | 2.000000e+01 |   7.74%|  80.74%
 28.8s|  2500 |   478 |142121 |  56.3 |    52M |  26 | 120 | 977 | 642 | 918 |  1 | 490 | 702 | 1.859601e+01 | 2.000000e+01 |   7.55%|  80.99%
 29.3s|  2600 |   446 |144911 |  55.2 |    52M |  26 | 120 | 977 | 662 | 918 |  1 | 494 | 702 | 1.860728e+01 | 2.000000e+01 |   7.48%|  81.35%
 29.9s|  2700 |   406 |148175 |  54.3 |    52M |  26 | 120 | 977 | 655 | 921 |  0 | 498 | 702 | 1.862082e+01 | 2.000000e+01 |   7.41%|  81.69%
 30.5s|  2800 |   364 |151145 |  53.5 |    52M |  26 | 120 | 979 | 654 | 934 |  1 | 507 | 702 | 1.864783e+01 | 2.000000e+01 |   7.25%|  82.58%
 31.0s|  2900 |   332 |154027 |  52.6 |    52M |  26 | 120 | 983 | 674 | 938 |  1 | 513 | 702 | 1.866661e+01 | 2.000000e+01 |   7.14%|  84.06%
 31.5s|  3000 |   292 |156706 |  51.7 |    52M |  26 | 120 | 982 | 655 | 947 |  0 | 521 | 702 | 1.867888e+01 | 2.000000e+01 |   7.07%|  84.72%
 time | node  | left  |LP iter|LP it/n|mem/heur|mdpt |vars |cons |rows |cuts |sepa|confs|strbr|  dualbound   | primalbound  |  gap   | compl. 
 32.0s|  3100 |   249 |160053 |  51.2 |    52M |  26 | 120 | 982 | 655 | 950 |  0 | 523 | 702 | 1.869510e+01 | 2.000000e+01 |   6.98%|  86.00%
 32.6s|  3200 |   182 |162490 |  50.3 |    52M |  26 | 120 | 979 | 650 | 951 |  0 | 527 | 702 | 1.873126e+01 | 2.000000e+01 |   6.77%|  88.75%
 33.1s|  3300 |   109 |165412 |  49.7 |    52M |  26 | 120 | 975 | 653 | 951 |  0 | 535 | 702 | 1.877361e+01 | 2.000000e+01 |   6.53%|  90.11%
 33.7s|  3400 |    24 |167737 |  48.9 |    52M |  27 | 120 | 967 | 692 | 954 |  0 | 539 | 702 | 1.882325e+01 | 2.000000e+01 |   6.25%|  94.46%

SCIP Status        : problem is solved [optimal solution found]
Solving Time (sec) : 33.79
Solving Nodes      : 3421
Primal Bound       : +2.00000000000000e+01 (332 solutions)
Dual Bound         : +2.00000000000000e+01
Gap                : 0.00 %
SCIP Status        : problem is solved [optimal solution found]
Total Time         :      33.80
  solving          :      33.79
  presolving       :       0.07 (included in solving)
  reading          :       0.01
  copying          :       0.04 (12 #copies) (minimal 0.00, maximal 0.00, average 0.00)
Original Problem   :
  Problem name     : cov1075
  Variables        : 120 (120 binary, 0 integer, 0 implicit integer, 0 continuous)
  Constraints      : 637 initial, 637 maximal
  Objective        : minimize, 120 non-zeros (abs.min = 1, abs.max = 1)
Presolved Problem  :
  Problem name     : t_cov1075
  Variables        : 120 (120 binary, 0 integer, 0 implicit integer, 0 continuous)
  Constraints      : 682 initial, 983 maximal
  Objective        : minimize, 120 non-zeros (abs.min = 1, abs.max = 1)
  Nonzeros         : 18239 constraint, 8 clique table
Presolvers         :   ExecTime  SetupTime  Calls  FixedVars   AggrVars   ChgTypes  ChgBounds   AddHoles    DelCons    AddCons   ChgSides   ChgCoefs
  boundshift       :       0.00       0.00      0          0          0          0          0          0          0          0          0          0
  convertinttobin  :       0.00       0.00      0          0          0          0          0          0          0          0          0          0
  domcol           :       0.00       0.00      2          0          0          0          0          0          0          0          0          0
  dualagg          :       0.00       0.00      0          0          0          0          0          0          0          0          0          0
  dualcomp         :       0.00       0.00      0          0          0          0          0          0          0          0          0          0
  dualinfer        :       0.00       0.00      0          0          0          0          0          0          0          0          0          0
  dualsparsify     :       0.03       0.00      1          0          0          0          0          0          0          0          0          0
  gateextraction   :       0.00       0.00      0          0          0          0          0          0          0          0          0          0
  implics          :       0.00       0.00      3          0          0          0          0          0          0          0          0          0
  inttobinary      :       0.00       0.00      0          0          0          0          0          0          0          0          0          0
  qpkktref         :       0.00       0.00      0          0          0          0          0          0          0          0          0          0
  redvub           :       0.00       0.00      0          0          0          0          0          0          0          0          0          0
  sparsify         :       0.00       0.00      1          0          0          0          0          0          0          0          0          0
  stuffing         :       0.00       0.00      0          0          0          0          0          0          0          0          0          0
  trivial          :       0.00       0.00      3          0          0          0          0          0          0          0          0          0
  tworowbnd        :       0.00       0.00      0          0          0          0          0          0          0          0          0          0
  dualfix          :       0.00       0.00      3          0          0          0          0          0          0          0          0          0
  genvbounds       :       0.00       0.00      0          0          0          0          0          0          0          0          0          0
  probing          :       0.00       0.00      1          0          0          0          0          0          0          0          0          0
  pseudoobj        :       0.00       0.00      1          0          0          0          0          0          0          0          0          0
  symmetry         :       0.02       0.00      1          0          0          0          0          0          0         45          0          0
  vbounds          :       0.00       0.00      0          0          0          0          0          0          0          0          0          0
  knapsack         :       0.00       0.00      6          0          0          0          0          0          0          0          0          0
  setppc           :       0.00       0.00      0          0          0          0          0          0          0          0          0          0
  linear           :       0.01       0.00      2          0          0          0          0          0          0          0          0          0
  orbisack         :       0.00       0.00      1          0          0          0          0          0          0          0          0          0
  symretope        :       0.00       0.00      1          0          0          0          0          0          0          0          0          0
  logicor          :       0.00       0.00      6          0          0          0          0          0          0          0          0          0
  benders          :       0.00       0.00      0          0          0          0          0          0          0          0          0          0
  components       :       0.00       0.00      1          0          0          0          0          0          0          0          0          0
  root node        :          -          -      -          4          -          -          4          -          -          -          -          -
Constraints        :     Number  MaxNumber  #Separate #Propagate    #EnfoLP    #EnfoRelax  #EnfoPS    #Check   #ResProp    Cutoffs    DomReds       Cuts    Applied      Conss   Children
  benderslp        :          0          0          0          0       1802          0          0        491          0          0          0          0          0          0          0
  integral         :          0          0          0          0       1802          0          0        491          0          1        160          0          0         88       3472
  knapsack         :        385        385          7      10189          2          0          0        486          0          0          0          0          0          0          0
  setppc           :          0+         7          2       4192          0          0          0          0        260          4         77          1          0          0          0
  linear           :          0+         4          0       7212          0          0          0          0          1          0         40          0          0          0          0
  orbisack         :         30         30          0        854          0          0          0        331        761        100       1562          0          0          0          0
  symretope        :         15         15          0       1975          0          0          0        331         75         13        131          0          0          0          0
  logicor          :        252+       546          7       6402          2          0          0        331        412        136        461          0          0          0          0
  benders          :          0          0          0          0          2          0          0        333          0          0          0          0          0          0          0
  countsols        :          0          0          0          0          2          0          0        333          0          0          0          0          0          0          0
  components       :          0          0          0          0          0          0          0          0          0          0          0          0          0          0          0
Constraint Timings :  TotalTime  SetupTime   Separate  Propagate     EnfoLP     EnfoPS     EnfoRelax   Check    ResProp    SB-Prop
  benderslp        :       0.00       0.00       0.00       0.00       0.00       0.00       0.00       0.00       0.00       0.00
  integral         :       5.35       0.00       0.00       0.00       5.34       0.00       0.00       0.00       0.00       0.00
  knapsack         :       0.55       0.00       0.08       0.40       0.00       0.00       0.00       0.01       0.00       0.05
  setppc           :       0.00       0.00       0.00       0.00       0.00       0.00       0.00       0.00       0.00       0.00
  linear           :       0.01       0.00       0.00       0.01       0.00       0.00       0.00       0.00       0.00       0.00
  orbisack         :       0.03       0.00       0.00       0.03       0.00       0.00       0.00       0.00       0.00       0.00
  symretope        :       0.06       0.00       0.00       0.05       0.00       0.00       0.00       0.00       0.00       0.01
  logicor          :       0.12       0.00       0.00       0.11       0.00       0.00       0.00       0.00       0.00       0.00
  benders          :       0.00       0.00       0.00       0.00       0.00       0.00       0.00       0.00       0.00       0.00
  countsols        :       0.00       0.00       0.00       0.00       0.00       0.00       0.00       0.00       0.00       0.00
  components       :       0.00       0.00       0.00       0.00       0.00       0.00       0.00       0.00       0.00       0.00
Propagators        : #Propagate   #ResProp    Cutoffs    DomReds
  dualfix          :          2          0          0          0
  genvbounds       :          0          0          0          0
  nlobbt           :          0          0          0          0
  obbt             :          0          0          0          0
  probing          :          0          0          0          0
  pseudoobj        :       8061          0          0          0
  redcost          :       5585          0          0      14754
  rootredcost      :          5          0          0          0
  symmetry         :          0          0          0          0
  vbounds          :          0          0          0          0
Propagator Timings :  TotalTime  SetupTime   Presolve  Propagate    ResProp    SB-Prop
  dualfix          :       0.00       0.00       0.00       0.00       0.00       0.00
  genvbounds       :       0.00       0.00       0.00       0.00       0.00       0.00
  nlobbt           :       0.00       0.00       0.00       0.00       0.00       0.00
  obbt             :       0.00       0.00       0.00       0.00       0.00       0.00
  probing          :       0.00       0.00       0.00       0.00       0.00       0.00
  pseudoobj        :       0.01       0.00       0.00       0.01       0.00       0.00
  redcost          :       0.19       0.00       0.00       0.19       0.00       0.00
  rootredcost      :       0.00       0.00       0.00       0.00       0.00       0.00
  symmetry         :       0.02       0.00       0.02       0.00       0.00       0.00
  vbounds          :       0.00       0.00       0.00       0.00       0.00       0.00
Orbital fixing     :
  vars fixed to 0  :          0
  vars fixed to 1  :          0
Conflict Analysis  :       Time      Calls    Success    DomReds  Conflicts   Literals    Reconvs ReconvLits   Dualrays   Nonzeros   LP Iters   (pool size: [10000,10000])
  propagation      :       0.00        253        134          -        224       17.1          2       18.5          -          -          -
  infeasible LP    :       0.00          1          1          -          2        3.0          0        0.0          1        2.0          0
  bound exceed. LP :       0.24        366        345          -        955       23.2          4       16.0          4       33.5       1967
  strong branching :       0.00          0          0          -          0        0.0          0        0.0          -          -          0
  pseudo solution  :       0.00          1          1          -          1       25.0          0        0.0          -          -          -
  applied globally :       0.00          -          -          0        319       12.8          -          -          5          -          -
  applied locally  :          -          -          -          0        215       24.4          -          -          0          -          -
Separators         :   ExecTime  SetupTime      Calls  RootCalls    Cutoffs    DomReds  FoundCuts ViaPoolAdd  DirectAdd    Applied ViaPoolApp  DirectApp      Conss
  cut pool         :       1.59          -       1275         13          -          -      25930       6753          -          -          -          -          -    (maximal pool size:       4173)
  aggregation      :       0.88       0.00        631          7          0          0          0          0          0          0          0          0          0
  > cmir           :          -          -          -          -          -          -          -          0          0          0          0          0          -
  > flowcover      :          -          -          -          -          -          -          -          0          0          0          0          0          -
  > knapsackcover  :          -          -          -          -          -          -          -          0          0          0          0          0          -
  cgmip            :       0.00       0.00          0          0          0          0          0          0          0          0          0          0          0
  clique           :       0.00       0.00          1          1          0          0          0          0          0          0          0          0          0
  closecuts        :       0.00       0.00          0          0          0          0          0          0          0          0          0          0          0
  convexproj       :       0.00       0.00          0          0          0          0          0          0          0          0          0          0          0
  disjunctive      :       0.00       0.00          0          0          0          0          0          0          0          0          0          0          0
  eccuts           :       0.00       0.00          0          0          0          0          0          0          0          0          0          0          0
  gauge            :       0.00       0.00          0          0          0          0          0          0          0          0          0          0          0
  gomory           :       1.63       0.00        485          7          0          0      25454       4921          0        258        258          0          0
  > gomorymi       :          -          -          -          -          -          -          -       2957          0        206        206          0          -
  > strongcg       :          -          -          -          -          -          -          -       1964          0         52         52          0          -
  impliedbounds    :       0.01       0.00        631          7          0          0          6         16          0          9          9          0          0
  interminor       :       0.00       0.00          0          0          0          0          0          0          0          0          0          0          0
  intobj           :       0.00       0.00          0          0          0          0          0          0          0          0          0          0          0
  mcf              :       0.00       0.00          1          1          0          0          0          0          0          0          0          0          0
  minor            :       0.00       0.00          0          0          0          0          0          0          0          0          0          0          0
  mixing           :       0.00       0.00          0          0          0          0          0          0          0          0          0          0          0
  oddcycle         :       0.00       0.00          0          0          0          0          0          0          0          0          0          0          0
  rapidlearning    :       0.08       0.00          2          0          0          0          0          0          0          0          0          0          0
  rlt              :       0.00       0.00          7          7          0          0          0          0          0          0          0          0          0
  zerohalf         :       0.80       0.00        485          7          0          0        470       1816          0        687        687          0          0
Cutselectors       :   ExecTime  SetupTime      Calls  RootCalls   Selected     Forced   Filtered  RootSelec   RootForc   RootFilt 
  hybrid           :       0.01       0.00        621          6        954          0       5800          6          0        768
Pricers            :   ExecTime  SetupTime      Calls       Vars
  problem variables:       0.00          -          0          0
Branching Rules    :   ExecTime  SetupTime   BranchLP  BranchExt   BranchPS    Cutoffs    DomReds       Cuts      Conss   Children
  allfullstrong    :       0.00       0.00          0          0          0          0          0          0          0          0
  cloud            :       0.00       0.00          0          0          0          0          0          0          0          0
  distribution     :       0.00       0.00          0          0          0          0          0          0          0          0
  fullstrong       :       0.00       0.00          0          0          0          0          0          0          0          0
  inference        :       0.00       0.00          0          0          0          0          0          0          0          0
  leastinf         :       0.00       0.00          0          0          0          0          0          0          0          0
  lookahead        :       0.00       0.00          0          0          0          0          0          0          0          0
  mostinf          :       0.00       0.00          0          0          0          0          0          0          0          0
  multaggr         :       0.00       0.00          0          0          0          0          0          0          0          0
  nodereopt        :       0.00       0.00          0          0          0          0          0          0          0          0
  pscost           :       0.00       0.00          0          0          0          0          0          0          0          0
  random           :       0.00       0.00          0          0          0          0          0          0          0          0
  relpscost        :       5.34       0.00       1800          0          0          1        160          0         88       3472
  vanillafullstrong:       0.00       0.00          0          0          0          0          0          0          0          0
Primal Heuristics  :   ExecTime  SetupTime      Calls      Found       Best
  LP solutions     :       0.00          -          -          2          2
  relax solutions  :       0.00          -          -          0          0
  pseudo solutions :       0.00          -          -          0          0
  strong branching :       0.00          -          -          1          1
  actconsdiving    :       0.00       0.00          0          0          0
  adaptivediving   :       0.17       0.00         30          0          0
  alns             :       0.04       0.00          5          0          0
  bound            :       0.00       0.00          0          0          0
  clique           :       0.00       0.00          0          0          0
  coefdiving       :       0.00       0.00          0          0          0
  completesol      :       0.00       0.00          0          0          0
  conflictdiving   :       0.08       0.00         15          0          0
  crossover        :       0.00       0.00          0          0          0
  dins             :       0.00       0.00          0          0          0
  distributiondivin:       0.13       0.00         15          0          0
  dps              :       0.00       0.00          0          0          0
  dualval          :       0.00       0.00          0          0          0
  farkasdiving     :       0.00       0.00          0          0          0
  feaspump         :       0.04       0.00          1          1          0
  fixandinfer      :       0.00       0.00          0          0          0
  fracdiving       :       0.10       0.00         15          0          0
  gins             :       0.00       0.00          0          0          0
  guideddiving     :       0.08       0.00         16          0          0
  indicator        :       0.00       0.00          0          0          0
  intdiving        :       0.00       0.00          0          0          0
  intshifting      :       0.00       0.00          0          0          0
  linesearchdiving :       0.07       0.00         15          0          0
  localbranching   :       0.00       0.00          0          0          0
  locks            :       0.01       0.00          1          0          0
  lpface           :       0.00       0.00          0          0          0
  mpec             :       0.00       0.00          0          0          0
  multistart       :       0.00       0.00          0          0          0
  mutation         :       0.00       0.00          0          0          0
  nlpdiving        :       0.00       0.00          0          0          0
  objpscostdiving  :       0.79       0.00          7          7          1
  octane           :       0.00       0.00          0          0          0
  ofins            :       0.00       0.00          0          0          0
  oneopt           :       0.00       0.00          6          2          2
  padm             :       0.00       0.00          0          0          0
  proximity        :       0.00       0.00          0          0          0
  pscostdiving     :       0.12       0.00         16          0          0
  randrounding     :       0.03       0.00        161          1          1
  rens             :       0.00       0.00          0          0          0
  reoptsols        :       0.00       0.00          0          0          0
  repair           :       0.00       0.00          0          0          0
  rins             :       1.39       0.00          5          5          0
  rootsoldiving    :       0.07       0.00          8          1          0
  rounding         :       0.05       0.00        702          0          0
  shiftandpropagate:       0.00       0.00          0          0          0
  shifting         :       0.05       0.00        363          0          0
  simplerounding   :       0.01       0.00       4468          0          0
  subnlp           :       0.00       0.00          0          0          0
  trivial          :       0.00       0.00          2          1          1
  trivialnegation  :       0.00       0.00          0          0          0
  trustregion      :       0.00       0.00          0          0          0
  trysol           :       0.00       0.00          0          0          0
  twoopt           :       0.00       0.00          0          0          0
  undercover       :       0.00       0.00          0          0          0
  vbounds          :       0.00       0.00          0          0          0
  veclendiving     :       0.05       0.00         15          0          0
  zeroobj          :       0.00       0.00          0          0          0
  zirounding       :       0.38       0.00       1736        311          0
  other solutions  :          -          -          -          0          -
LP                 :       Time      Calls Iterations  Iter/call   Iter/sec  Time-0-It Calls-0-It    ItLimit
  primal LP        :       1.35        564          0       0.00       0.00       1.35        564
  dual LP          :      15.91       6105     156567      36.22    9839.55       0.37       1782
  lex dual LP      :       0.00          0          0       0.00          -
  barrier LP       :       0.00          0          0       0.00          -       0.00          0
  resolve instable :       0.00          0          0       0.00          -
  diving/probing LP:       1.33        603      11379      18.87    8534.50
  strong branching :       4.89        702      72921     103.88   14898.33          -          -         35
    (at root node) :          -         21       3277     156.05          -
  conflict analysis:       0.19        197       1967       9.98   10277.34
B&B Tree           :
  number of runs   :          1
  nodes            :       3421 (1736 internal, 1685 leaves)
  feasible leaves  :          2
  infeas. leaves   :         46
  objective leaves :       1637
  nodes (total)    :       3421 (1736 internal, 1685 leaves)
  nodes left       :          0
  max depth        :         27
  max depth (total):         27
  backtracks       :       1186 (34.7%)
  early backtracks :          0 (0.0%)
  nodes exc. ref.  :          0 (0.0%)
  delayed cutoffs  :         12
  repropagations   :        159 (73 domain reductions, 7 cutoffs)
  avg switch length:       9.21
  switching time   :       1.85
Root Node          :
  First LP value   : +1.71428571428571e+01
  First LP Iters   :       1222 (18559.86 Iter/sec)
  First LP Time    :       0.07
  Final Dual Bound : +1.74009139009139e+01
  Final Root Iters :       1528
  Root LP Estimate : +1.94287334280400e+01
Solution           :
  Solutions found  :        332 (8 improvements)
  First Solution   : +1.20000000000000e+02   (in run 1, after 0 nodes, 0.00 seconds, depth 0, found by <trivial>)
  Gap First Sol.   :   infinite
  Gap Last Sol.    :      12.59 %
  Primal Bound     : +2.00000000000000e+01   (in run 1, after 122 nodes, 6.36 seconds, depth 21, found by <relaxation>)
  Dual Bound       : +2.00000000000000e+01
  Gap              :       0.00 %
Integrals          :      Total       Avg%
  primal-dual      :     415.82      12.31
  primal-ref       :          -          - (not evaluated)
  dual-ref         :          -          - (not evaluated)
written solution information to file <results/final_miplib_symretope_if_extended_generating_set_cpx_v802__settings_final_nopeek_norelabel_extend_norestarts__2__cov1075.mps.gz.sol>
@04 1686656611
